id: 482
name: world
group: meszaros/misc
method: 1

Gurobi 7.0.2 (linux64, Matlab) logging started Tue Apr 17 18:29:11 2018


Gurobi 7.0.2 (linux64) logging started Tue Apr 17 18:29:11 2018

Optimize a model with 34506 rows, 32734 columns and 164470 nonzeros
Coefficient statistics:
  Matrix range     [3e-03, 6e+03]
  Objective range  [7e-04, 1e+05]
  Bounds range     [1e-06, 1e+05]
  RHS range        [2e-03, 8e+06]
Presolve removed 11232 rows and 7315 columns
Presolve time: 0.08s
Presolved: 23274 rows, 25471 columns, 114844 nonzeros

Iteration    Objective       Primal Inf.    Dual Inf.      Time
       0   -2.3550265e+32   2.192265e+32   2.355027e+02      0s
   25675    6.6399689e+07   9.471373e+08   0.000000e+00      5s
   35533    6.9129810e+07   1.053739e+03   0.000000e+00     10s
Extra 16 simplex iterations after uncrush
   36976    6.9133046e+07   0.000000e+00   0.000000e+00     10s

Solved in 36976 iterations and 10.40 seconds
Optimal objective  6.913304582e+07
status: OPTIMAL
